c nIsolatedPIs 18
c maxPI 14
p cnf 40 79
c gate 15 -6 -13 0
-6 -15 0
-13 -15 0
6 13 15 0
c gate 16 7 -14 0
7 -16 0
-14 -16 0
-7 14 16 0
c gate 17 -7 14 0
-7 -17 0
14 -17 0
7 -14 17 0
c gate 18 -16 -17 0
-16 -18 0
-17 -18 0
16 17 18 0
c gate 19 15 18 0
15 -19 0
18 -19 0
-15 -18 19 0
c gate 20 -3 -10 0
-3 -20 0
-10 -20 0
3 10 20 0
c gate 21 2 9 0
2 -21 0
9 -21 0
-2 -9 21 0
c gate 22 -2 -9 0
-2 -22 0
-9 -22 0
2 9 22 0
c gate 23 1 8 0
1 -23 0
8 -23 0
-1 -8 23 0
c gate 24 -22 23 0
-22 -24 0
23 -24 0
22 -23 24 0
c gate 25 -21 -24 0
-21 -25 0
-24 -25 0
21 24 25 0
c gate 26 -20 -25 0
-20 -26 0
-25 -26 0
20 25 26 0
c gate 27 4 11 0
4 -27 0
11 -27 0
-4 -11 27 0
c gate 28 3 10 0
3 -28 0
10 -28 0
-3 -10 28 0
c gate 29 -27 -28 0
-27 -29 0
-28 -29 0
27 28 29 0
c gate 30 -26 29 0
-26 -30 0
29 -30 0
26 -29 30 0
c gate 31 -5 -12 0
-5 -31 0
-12 -31 0
5 12 31 0
c gate 32 -4 -11 0
-4 -32 0
-11 -32 0
4 11 32 0
c gate 33 -31 -32 0
-31 -33 0
-32 -33 0
31 32 33 0
c gate 34 -30 33 0
-30 -34 0
33 -34 0
30 -33 34 0
c gate 35 5 12 0
5 -35 0
12 -35 0
-5 -12 35 0
c gate 36 6 13 0
6 -36 0
13 -36 0
-6 -13 36 0
c gate 37 -35 -36 0
-35 -37 0
-36 -37 0
35 36 37 0
c gate 38 -34 37 0
-34 -38 0
37 -38 0
34 -37 38 0
c gate 39 -15 -38 0
-15 -39 0
-38 -39 0
15 38 39 0
c gate 40 -19 -39 0
-19 -40 0
-39 -40 0
19 39 40 0
c PO
40 0
